100 500 10 200 10 100
84 63
44 58
16 194
49 104
88 181
87 61
47 46
39 157
14 25
53 162
41 147
65 124
90 105
12 105
72 158
53 131
56 34
14 193
59 166
41 152
35 106
26 141
93 62
32 60
71 39
24 39
79 173
21 34
84 83
74 54
82 13
63 73
84 29
15 99
37 27
96 131
65 75
50 87
48 180
17 25
26 192
36 17
63 29
27 85
25 183
18 154
88 147
88 45
19 126
68 173
93 27
25 87
92 186
31 41
54 122
10 28
22 123
28 121
75 110
92 87
16 168
49 122
52 101
28 102
100 134
60 181
12 190
66 43
57 53
50 16
41 166
33 122
40 103
44 74
67 81
20 139
53 35
30 175
66 60
55 187
88 185
20 156
97 79
100 194
25 108
16 109
53 55
62 173
61 129
14 25
48 41
54 70
91 57
85 36
76 133
75 112
24 34
15 135
60 101
63 46
